NAME: tsp30_8
COMMENT: 30-tsp problem (Padberg/Rinaldi)
TYPE: TSP
DIMENSION: 30
EDGE_WEIGHT_TYPE : EUC_2D
NODE_COORD_SECTION
1.00 5.93 39.81
2.00 36.80 35.87
3.00 15.05 2.11
4.00 35.72 6.16
5.00 0.77 19.62
6.00 39.66 24.99
7.00 30.87 32.05
8.00 17.45 29.36
9.00 11.68 10.59
10.00 8.73 15.44
11.00 31.04 10.55
12.00 23.09 8.15
13.00 31.98 38.72
14.00 39.09 36.95
15.00 7.75 18.84
16.00 1.61 37.72
17.00 39.29 15.44
18.00 34.91 26.36
19.00 39.24 21.81
20.00 25.43 3.96
21.00 25.07 11.68
22.00 23.78 26.15
23.00 24.99 32.95
24.00 33.15 0.73
25.00 36.84 31.22
26.00 23.60 35.09
27.00 4.47 2.96
28.00 31.28 23.35
29.00 1.48 20.07
30.00 14.49 34.78
